p cnf 1010 2622
e 1 23 35 46 57 0
a 74 75 76 77 78 79 0
e 86 87 88 89 90 91 92 0
a 100 101 102 103 104 105 106 107 658 659 660 661 905 906 907 908 909 662 570 569 568 567 566 99 98 97 96 95 94 93 238 237 236 235 234 161 160 159 158 157 73 72 71 70 69 0
e 108 109 110 111 112 113 114 115 804 805 806 807 808 439 438 437 436 435 355 354 353 352 351 85 84 83 82 81 80 18 13 6 2 4 3 5 7 8 9 10 11 12 14 15 16 17 19 20 21 22 24 25 26 27 28 29 30 31 32 33 34 36 37 38 39 40 41 42 43 44 45 47 48 49 50 51 52 53 54 55 56 58 59 60 61 62 63 64 65 66 67 68 116 117 118 119 120 121 122 123 124 125 126 127 128 129 130 131 132 133 134 135 136 137 138 139 140 141 142 143 144 145 146 147 148 149 150 151 152 153 154 155 156 162 163 164 165 166 167 168 169 170 171 172 173 174 175 176 177 178 179 180 181 182 183 184 185 186 187 188 189 190 191 192 193 194 195 196 197 198 199 200 201 202 203 204 205 206 207 208 209 210 211 212 213 214 215 216 217 218 219 220 221 222 223 224 225 226 227 228 229 230 231 232 233 239 240 241 242 243 244 245 246 247 248 249 250 251 252 253 254 255 256 257 258 259 260 261 262 263 264 265 266 267 268 269 270 271 272 273 274 275 276 277 278 279 280 281 282 283 284 285 286 287 288 289 290 291 292 293 294 295 296 297 298 299 300 301 302 303 304 305 306 307 308 309 310 311 312 313 314 315 316 317 318 319 320 321 322 323 324 325 326 327 328 329 330 331 332 333 334 335 336 337 338 339 340 341 342 343 344 345 346 347 348 349 350 356 357 358 359 360 361 362 363 364 365 366 367 368 369 370 371 372 373 374 375 376 377 378 379 380 381 382 383 384 385 386 387 388 389 390 391 392 393 394 395 396 397 398 399 400 401 402 403 404 405 406 407 408 409 410 411 412 413 414 415 416 417 418 419 420 421 422 423 424 425 426 427 428 429 430 431 432 433 434 440 441 442 443 444 445 446 447 448 449 450 451 452 453 454 455 456 457 458 459 460 461 462 463 464 465 466 467 468 469 470 471 472 473 474 475 476 477 478 479 480 481 482 483 484 485 486 487 488 489 490 491 492 493 494 495 496 497 498 499 500 501 502 503 504 505 506 507 508 509 510 511 512 513 514 515 516 517 518 519 520 521 522 523 524 525 526 527 528 529 530 531 532 533 534 535 536 537 538 539 540 541 542 543 544 545 546 547 548 549 550 551 552 553 554 555 556 557 558 559 560 561 562 563 564 565 571 572 573 574 575 576 577 578 579 580 581 582 583 584 585 586 587 588 589 590 591 592 593 594 595 596 597 598 599 600 601 602 603 604 605 606 607 608 609 610 611 612 613 614 615 616 617 618 619 620 621 622 623 624 625 626 627 628 629 630 631 632 633 634 635 636 637 638 639 640 641 642 643 644 645 646 647 648 649 650 651 652 653 654 655 656 657 663 664 665 666 667 668 669 670 671 672 673 674 675 676 677 678 679 680 681 682 683 684 685 686 687 688 689 690 691 692 693 694 695 696 697 698 699 700 701 702 703 704 705 706 707 708 709 710 711 712 713 714 715 716 717 718 719 720 721 722 723 724 725 726 727 728 729 730 731 732 733 734 735 736 737 738 739 740 741 742 743 744 745 746 747 748 749 750 751 752 753 754 755 756 757 758 759 760 761 762 763 764 765 766 767 768 769 770 771 772 773 774 775 776 777 778 779 780 781 782 783 784 785 786 787 788 789 790 791 792 793 794 795 796 797 798 799 800 801 802 803 809 810 811 812 813 814 815 816 817 818 819 820 821 822 823 824 825 826 827 828 829 830 831 832 833 834 835 836 837 838 839 840 841 842 843 844 845 846 847 848 849 850 851 852 853 854 855 856 857 858 859 860 861 862 863 864 865 866 867 868 869 870 871 872 873 874 875 876 877 878 879 880 881 882 883 884 885 886 887 888 889 890 891 892 893 894 895 896 897 898 899 900 901 902 903 904 910 911 912 913 914 915 916 917 918 919 920 921 922 923 924 925 926 927 928 929 930 931 932 933 934 935 936 937 938 939 940 941 942 943 944 945 946 947 948 949 950 951 952 953 954 955 956 957 958 959 960 961 962 963 964 965 966 967 968 969 970 971 972 973 974 975 976 977 978 979 980 981 982 983 984 985 986 987 988 989 990 991 992 993 994 995 996 997 998 999 1000 1001 1002 1003 1004 1005 1006 1007 1008 1009 1010 0
-2 -3 0
2 3 0
3 4 -5 0
-3 5 0
-4 5 0
-6 -7 0
6 7 0
5 7 -8 0
-5 8 0
-7 8 0
4 2 -9 0
-4 9 0
-2 9 0
9 6 -10 0
-9 10 0
-6 10 0
-8 -10 11 0
8 -11 0
10 -11 0
-4 -12 0
4 12 0
-13 -14 0
13 14 0
12 14 -15 0
-12 15 0
-14 15 0
15 6 -16 0
-15 16 0
-6 16 0
-11 -16 17 0
11 -17 0
16 -17 0
-18 -19 0
18 19 0
19 4 -20 0
-19 20 0
-4 20 0
20 14 -21 0
-20 21 0
-14 21 0
-17 -21 22 0
17 -22 0
21 -22 0
2 7 -24 0
-2 24 0
-7 24 0
24 18 -25 0
-24 25 0
-18 25 0
14 2 -26 0
-14 26 0
-2 26 0
26 18 -27 0
-26 27 0
-18 27 0
-25 -27 28 0
25 -28 0
27 -28 0
4 13 -29 0
-4 29 0
-13 29 0
29 19 -30 0
-29 30 0
-19 30 0
-28 -30 31 0
28 -31 0
30 -31 0
2 19 -32 0
-2 32 0
-19 32 0
32 14 -33 0
-32 33 0
-14 33 0
-31 -33 34 0
31 -34 0
33 -34 0
7 14 -36 0
-7 36 0
-14 36 0
36 2 -37 0
-36 37 0
-2 37 0
13 6 -38 0
-13 38 0
-6 38 0
38 2 -39 0
-38 39 0
-2 39 0
-37 -39 40 0
37 -40 0
39 -40 0
13 19 -41 0
-13 41 0
-19 41 0
41 6 -42 0
-41 42 0
-6 42 0
-40 -42 43 0
40 -43 0
42 -43 0
26 6 -44 0
-26 44 0
-6 44 0
-43 -44 45 0
43 -45 0
44 -45 0
2 12 -47 0
-2 47 0
-12 47 0
47 14 -48 0
-47 48 0
-14 48 0
18 4 -49 0
-18 49 0
-4 49 0
49 13 -50 0
-49 50 0
-13 50 0
-48 -50 51 0
48 -51 0
50 -51 0
3 13 -52 0
-3 52 0
-13 52 0
52 7 -53 0
-52 53 0
-7 53 0
-51 -53 54 0
51 -54 0
53 -54 0
38 19 -55 0
-38 55 0
-19 55 0
-54 -55 56 0
54 -56 0
55 -56 0
12 19 -58 0
-12 58 0
-19 58 0
58 14 -59 0
-58 59 0
-14 59 0
19 2 -60 0
-19 60 0
-2 60 0
60 12 -61 0
-60 61 0
-12 61 0
-59 -61 62 0
59 -62 0
61 -62 0
3 6 -63 0
-3 63 0
-6 63 0
63 18 -64 0
-63 64 0
-18 64 0
-62 -64 65 0
62 -65 0
64 -65 0
4 14 -66 0
-4 66 0
-14 66 0
66 6 -67 0
-66 67 0
-6 67 0
-65 -67 68 0
65 -68 0
67 -68 0
-1 -116 0
1 116 0
116 22 -117 0
-116 117 0
-22 117 0
-23 -118 0
23 118 0
118 34 -119 0
-118 119 0
-34 119 0
-117 -119 120 0
117 -120 0
119 -120 0
-35 -121 0
35 121 0
121 45 -122 0
-121 122 0
-45 122 0
-120 -122 123 0
120 -123 0
122 -123 0
-46 -124 0
46 124 0
124 56 -125 0
-124 125 0
-56 125 0
-123 -125 126 0
123 -126 0
125 -126 0
-57 -127 0
57 127 0
127 68 -128 0
-127 128 0
-68 128 0
-126 -128 129 0
126 -129 0
128 -129 0
-129 -18 130 0
129 -130 0
18 -130 0
116 69 -131 0
-116 131 0
-69 131 0
118 70 -132 0
-118 132 0
-70 132 0
-131 -132 133 0
131 -133 0
132 -133 0
121 71 -134 0
-121 134 0
-71 134 0
-133 -134 135 0
133 -135 0
134 -135 0
124 72 -136 0
-124 136 0
-72 136 0
-135 -136 137 0
135 -137 0
136 -137 0
127 73 -138 0
-127 138 0
-73 138 0
-137 -138 139 0
137 -139 0
138 -139 0
-69 -140 0
69 140 0
140 1 -141 0
-140 141 0
-1 141 0
-70 -142 0
70 142 0
142 23 -143 0
-142 143 0
-23 143 0
-141 -143 144 0
141 -144 0
143 -144 0
-71 -145 0
71 145 0
145 35 -146 0
-145 146 0
-35 146 0
-144 -146 147 0
144 -147 0
146 -147 0
-72 -148 0
72 148 0
148 46 -149 0
-148 149 0
-46 149 0
-147 -149 150 0
147 -150 0
149 -150 0
-73 -151 0
73 151 0
151 57 -152 0
-151 152 0
-57 152 0
-150 -152 153 0
150 -153 0
152 -153 0
-153 -154 0
153 154 0
-139 -154 155 0
139 -155 0
154 -155 0
-155 -156 0
155 156 0
-158 -162 0
158 162 0
162 157 -163 0
-162 163 0
-157 163 0
-159 -164 0
159 164 0
163 164 -165 0
-163 165 0
-164 165 0
157 158 -166 0
-157 166 0
-158 166 0
166 159 -167 0
-166 167 0
-159 167 0
-165 -167 168 0
165 -168 0
167 -168 0
-157 -169 0
157 169 0
-160 -170 0
160 170 0
169 170 -171 0
-169 171 0
-170 171 0
171 159 -172 0
-171 172 0
-159 172 0
-168 -172 173 0
168 -173 0
172 -173 0
-161 -174 0
161 174 0
174 157 -175 0
-174 175 0
-157 175 0
175 170 -176 0
-175 176 0
-170 176 0
-173 -176 177 0
173 -177 0
176 -177 0
140 177 -178 0
-140 178 0
-177 178 0
158 164 -179 0
-158 179 0
-164 179 0
179 161 -180 0
-179 180 0
-161 180 0
170 158 -181 0
-170 181 0
-158 181 0
181 161 -182 0
-181 182 0
-161 182 0
-180 -182 183 0
180 -183 0
182 -183 0
157 160 -184 0
-157 184 0
-160 184 0
184 174 -185 0
-184 185 0
-174 185 0
-183 -185 186 0
183 -186 0
185 -186 0
158 174 -187 0
-158 187 0
-174 187 0
187 170 -188 0
-187 188 0
-170 188 0
-186 -188 189 0
186 -189 0
188 -189 0
142 189 -190 0
-142 190 0
-189 190 0
-178 -190 191 0
178 -191 0
190 -191 0
164 170 -192 0
-164 192 0
-170 192 0
192 158 -193 0
-192 193 0
-158 193 0
160 159 -194 0
-160 194 0
-159 194 0
194 158 -195 0
-194 195 0
-158 195 0
-193 -195 196 0
193 -196 0
195 -196 0
160 174 -197 0
-160 197 0
-174 197 0
197 159 -198 0
-197 198 0
-159 198 0
-196 -198 199 0
196 -199 0
198 -199 0
181 159 -200 0
-181 200 0
-159 200 0
-199 -200 201 0
199 -201 0
200 -201 0
145 201 -202 0
-145 202 0
-201 202 0
-191 -202 203 0
191 -203 0
202 -203 0
158 169 -204 0
-158 204 0
-169 204 0
204 170 -205 0
-204 205 0
-170 205 0
161 157 -206 0
-161 206 0
-157 206 0
206 160 -207 0
-206 207 0
-160 207 0
-205 -207 208 0
205 -208 0
207 -208 0
162 160 -209 0
-162 209 0
-160 209 0
209 164 -210 0
-209 210 0
-164 210 0
-208 -210 211 0
208 -211 0
210 -211 0
194 174 -212 0
-194 212 0
-174 212 0
-211 -212 213 0
211 -213 0
212 -213 0
148 213 -214 0
-148 214 0
-213 214 0
-203 -214 215 0
203 -215 0
214 -215 0
169 174 -216 0
-169 216 0
-174 216 0
216 170 -217 0
-216 217 0
-170 217 0
174 158 -218 0
-174 218 0
-158 218 0
218 169 -219 0
-218 219 0
-169 219 0
-217 -219 220 0
217 -220 0
219 -220 0
162 159 -221 0
-162 221 0
-159 221 0
221 161 -222 0
-221 222 0
-161 222 0
-220 -222 223 0
220 -223 0
222 -223 0
157 170 -224 0
-157 224 0
-170 224 0
224 159 -225 0
-224 225 0
-159 225 0
-223 -225 226 0
223 -226 0
225 -226 0
151 226 -227 0
-151 227 0
-226 227 0
-215 -227 228 0
215 -228 0
227 -228 0
-228 -229 0
228 229 0
229 161 -230 0
-229 230 0
-161 230 0
156 230 -231 0
-156 231 0
-230 231 0
-130 -231 232 0
130 -232 0
231 -232 0
-232 -233 0
232 233 0
-74 -239 0
74 239 0
-235 -240 0
235 240 0
240 234 -241 0
-240 241 0
-234 241 0
-236 -242 0
236 242 0
241 242 -243 0
-241 243 0
-242 243 0
234 235 -244 0
-234 244 0
-235 244 0
244 236 -245 0
-244 245 0
-236 245 0
-243 -245 246 0
243 -246 0
245 -246 0
-234 -247 0
234 247 0
-237 -248 0
237 248 0
247 248 -249 0
-247 249 0
-248 249 0
249 236 -250 0
-249 250 0
-236 250 0
-246 -250 251 0
246 -251 0
250 -251 0
-238 -252 0
238 252 0
252 234 -253 0
-252 253 0
-234 253 0
253 248 -254 0
-253 254 0
-248 254 0
-251 -254 255 0
251 -255 0
254 -255 0
116 255 -256 0
-116 256 0
-255 256 0
239 256 -257 0
-239 257 0
-256 257 0
-75 -258 0
75 258 0
235 242 -259 0
-235 259 0
-242 259 0
259 238 -260 0
-259 260 0
-238 260 0
248 235 -261 0
-248 261 0
-235 261 0
261 238 -262 0
-261 262 0
-238 262 0
-260 -262 263 0
260 -263 0
262 -263 0
234 237 -264 0
-234 264 0
-237 264 0
264 252 -265 0
-264 265 0
-252 265 0
-263 -265 266 0
263 -266 0
265 -266 0
235 252 -267 0
-235 267 0
-252 267 0
267 248 -268 0
-267 268 0
-248 268 0
-266 -268 269 0
266 -269 0
268 -269 0
118 269 -270 0
-118 270 0
-269 270 0
258 270 -271 0
-258 271 0
-270 271 0
-257 -271 272 0
257 -272 0
271 -272 0
-76 -273 0
76 273 0
242 248 -274 0
-242 274 0
-248 274 0
274 235 -275 0
-274 275 0
-235 275 0
237 236 -276 0
-237 276 0
-236 276 0
276 235 -277 0
-276 277 0
-235 277 0
-275 -277 278 0
275 -278 0
277 -278 0
237 252 -279 0
-237 279 0
-252 279 0
279 236 -280 0
-279 280 0
-236 280 0
-278 -280 281 0
278 -281 0
280 -281 0
261 236 -282 0
-261 282 0
-236 282 0
-281 -282 283 0
281 -283 0
282 -283 0
121 283 -284 0
-121 284 0
-283 284 0
273 284 -285 0
-273 285 0
-284 285 0
-272 -285 286 0
272 -286 0
285 -286 0
-77 -287 0
77 287 0
235 247 -288 0
-235 288 0
-247 288 0
288 248 -289 0
-288 289 0
-248 289 0
238 234 -290 0
-238 290 0
-234 290 0
290 237 -291 0
-290 291 0
-237 291 0
-289 -291 292 0
289 -292 0
291 -292 0
240 237 -293 0
-240 293 0
-237 293 0
293 242 -294 0
-293 294 0
-242 294 0
-292 -294 295 0
292 -295 0
294 -295 0
276 252 -296 0
-276 296 0
-252 296 0
-295 -296 297 0
295 -297 0
296 -297 0
124 297 -298 0
-124 298 0
-297 298 0
287 298 -299 0
-287 299 0
-298 299 0
-286 -299 300 0
286 -300 0
299 -300 0
-78 -301 0
78 301 0
247 252 -302 0
-247 302 0
-252 302 0
302 248 -303 0
-302 303 0
-248 303 0
252 235 -304 0
-252 304 0
-235 304 0
304 247 -305 0
-304 305 0
-247 305 0
-303 -305 306 0
303 -306 0
305 -306 0
240 236 -307 0
-240 307 0
-236 307 0
307 238 -308 0
-307 308 0
-238 308 0
-306 -308 309 0
306 -309 0
308 -309 0
234 248 -310 0
-234 310 0
-248 310 0
310 236 -311 0
-310 311 0
-236 311 0
-309 -311 312 0
309 -312 0
311 -312 0
127 312 -313 0
-127 313 0
-312 313 0
301 313 -314 0
-301 314 0
-313 314 0
-300 -314 315 0
300 -315 0
314 -315 0
-79 -316 0
79 316 0
316 238 -317 0
-316 317 0
-238 317 0
-315 -317 318 0
315 -318 0
317 -318 0
-318 -242 319 0
318 -319 0
242 -319 0
239 80 -320 0
-239 320 0
-80 320 0
258 81 -321 0
-258 321 0
-81 321 0
-320 -321 322 0
320 -322 0
321 -322 0
273 82 -323 0
-273 323 0
-82 323 0
-322 -323 324 0
322 -324 0
323 -324 0
287 83 -325 0
-287 325 0
-83 325 0
-324 -325 326 0
324 -326 0
325 -326 0
301 84 -327 0
-301 327 0
-84 327 0
-326 -327 328 0
326 -328 0
327 -328 0
316 85 -329 0
-316 329 0
-85 329 0
-328 -329 330 0
328 -330 0
329 -330 0
-80 -331 0
80 331 0
331 74 -332 0
-331 332 0
-74 332 0
-81 -333 0
81 333 0
333 75 -334 0
-333 334 0
-75 334 0
-332 -334 335 0
332 -335 0
334 -335 0
-82 -336 0
82 336 0
336 76 -337 0
-336 337 0
-76 337 0
-335 -337 338 0
335 -338 0
337 -338 0
-83 -339 0
83 339 0
339 77 -340 0
-339 340 0
-77 340 0
-338 -340 341 0
338 -341 0
340 -341 0
-84 -342 0
84 342 0
342 78 -343 0
-342 343 0
-78 343 0
-341 -343 344 0
341 -344 0
343 -344 0
-85 -345 0
85 345 0
345 79 -346 0
-345 346 0
-79 346 0
-344 -346 347 0
344 -347 0
346 -347 0
-347 -348 0
347 348 0
-330 -348 349 0
330 -349 0
348 -349 0
-349 -350 0
349 350 0
-352 -356 0
352 356 0
356 351 -357 0
-356 357 0
-351 357 0
-353 -358 0
353 358 0
357 358 -359 0
-357 359 0
-358 359 0
351 352 -360 0
-351 360 0
-352 360 0
360 353 -361 0
-360 361 0
-353 361 0
-359 -361 362 0
359 -362 0
361 -362 0
-351 -363 0
351 363 0
-354 -364 0
354 364 0
363 364 -365 0
-363 365 0
-364 365 0
365 353 -366 0
-365 366 0
-353 366 0
-362 -366 367 0
362 -367 0
366 -367 0
-355 -368 0
355 368 0
368 351 -369 0
-368 369 0
-351 369 0
369 364 -370 0
-369 370 0
-364 370 0
-367 -370 371 0
367 -371 0
370 -371 0
140 371 -372 0
-140 372 0
-371 372 0
331 372 -373 0
-331 373 0
-372 373 0
352 358 -374 0
-352 374 0
-358 374 0
374 355 -375 0
-374 375 0
-355 375 0
364 352 -376 0
-364 376 0
-352 376 0
376 355 -377 0
-376 377 0
-355 377 0
-375 -377 378 0
375 -378 0
377 -378 0
351 354 -379 0
-351 379 0
-354 379 0
379 368 -380 0
-379 380 0
-368 380 0
-378 -380 381 0
378 -381 0
380 -381 0
352 368 -382 0
-352 382 0
-368 382 0
382 364 -383 0
-382 383 0
-364 383 0
-381 -383 384 0
381 -384 0
383 -384 0
142 384 -385 0
-142 385 0
-384 385 0
333 385 -386 0
-333 386 0
-385 386 0
-373 -386 387 0
373 -387 0
386 -387 0
358 364 -388 0
-358 388 0
-364 388 0
388 352 -389 0
-388 389 0
-352 389 0
354 353 -390 0
-354 390 0
-353 390 0
390 352 -391 0
-390 391 0
-352 391 0
-389 -391 392 0
389 -392 0
391 -392 0
354 368 -393 0
-354 393 0
-368 393 0
393 353 -394 0
-393 394 0
-353 394 0
-392 -394 395 0
392 -395 0
394 -395 0
376 353 -396 0
-376 396 0
-353 396 0
-395 -396 397 0
395 -397 0
396 -397 0
145 397 -398 0
-145 398 0
-397 398 0
336 398 -399 0
-336 399 0
-398 399 0
-387 -399 400 0
387 -400 0
399 -400 0
352 363 -401 0
-352 401 0
-363 401 0
401 364 -402 0
-401 402 0
-364 402 0
355 351 -403 0
-355 403 0
-351 403 0
403 354 -404 0
-403 404 0
-354 404 0
-402 -404 405 0
402 -405 0
404 -405 0
356 354 -406 0
-356 406 0
-354 406 0
406 358 -407 0
-406 407 0
-358 407 0
-405 -407 408 0
405 -408 0
407 -408 0
390 368 -409 0
-390 409 0
-368 409 0
-408 -409 410 0
408 -410 0
409 -410 0
148 410 -411 0
-148 411 0
-410 411 0
339 411 -412 0
-339 412 0
-411 412 0
-400 -412 413 0
400 -413 0
412 -413 0
363 368 -414 0
-363 414 0
-368 414 0
414 364 -415 0
-414 415 0
-364 415 0
368 352 -416 0
-368 416 0
-352 416 0
416 363 -417 0
-416 417 0
-363 417 0
-415 -417 418 0
415 -418 0
417 -418 0
356 353 -419 0
-356 419 0
-353 419 0
419 355 -420 0
-419 420 0
-355 420 0
-418 -420 421 0
418 -421 0
420 -421 0
351 364 -422 0
-351 422 0
-364 422 0
422 353 -423 0
-422 423 0
-353 423 0
-421 -423 424 0
421 -424 0
423 -424 0
151 424 -425 0
-151 425 0
-424 425 0
342 425 -426 0
-342 426 0
-425 426 0
-413 -426 427 0
413 -427 0
426 -427 0
345 355 -428 0
-345 428 0
-355 428 0
-427 -428 429 0
427 -429 0
428 -429 0
-429 -430 0
429 430 0
430 358 -431 0
-430 431 0
-358 431 0
350 431 -432 0
-350 432 0
-431 432 0
-319 -432 433 0
319 -433 0
432 -433 0
-433 -434 0
433 434 0
-86 -440 0
86 440 0
-436 -441 0
436 441 0
441 435 -442 0
-441 442 0
-435 442 0
-437 -443 0
437 443 0
442 443 -444 0
-442 444 0
-443 444 0
435 436 -445 0
-435 445 0
-436 445 0
445 437 -446 0
-445 446 0
-437 446 0
-444 -446 447 0
444 -447 0
446 -447 0
-435 -448 0
435 448 0
-438 -449 0
438 449 0
448 449 -450 0
-448 450 0
-449 450 0
450 437 -451 0
-450 451 0
-437 451 0
-447 -451 452 0
447 -452 0
451 -452 0
-439 -453 0
439 453 0
453 435 -454 0
-453 454 0
-435 454 0
454 449 -455 0
-454 455 0
-449 455 0
-452 -455 456 0
452 -456 0
455 -456 0
116 456 -457 0
-116 457 0
-456 457 0
239 457 -458 0
-239 458 0
-457 458 0
440 458 -459 0
-440 459 0
-458 459 0
-87 -460 0
87 460 0
436 443 -461 0
-436 461 0
-443 461 0
461 439 -462 0
-461 462 0
-439 462 0
449 436 -463 0
-449 463 0
-436 463 0
463 439 -464 0
-463 464 0
-439 464 0
-462 -464 465 0
462 -465 0
464 -465 0
435 438 -466 0
-435 466 0
-438 466 0
466 453 -467 0
-466 467 0
-453 467 0
-465 -467 468 0
465 -468 0
467 -468 0
436 453 -469 0
-436 469 0
-453 469 0
469 449 -470 0
-469 470 0
-449 470 0
-468 -470 471 0
468 -471 0
470 -471 0
118 471 -472 0
-118 472 0
-471 472 0
258 472 -473 0
-258 473 0
-472 473 0
460 473 -474 0
-460 474 0
-473 474 0
-459 -474 475 0
459 -475 0
474 -475 0
-88 -476 0
88 476 0
443 449 -477 0
-443 477 0
-449 477 0
477 436 -478 0
-477 478 0
-436 478 0
438 437 -479 0
-438 479 0
-437 479 0
479 436 -480 0
-479 480 0
-436 480 0
-478 -480 481 0
478 -481 0
480 -481 0
438 453 -482 0
-438 482 0
-453 482 0
482 437 -483 0
-482 483 0
-437 483 0
-481 -483 484 0
481 -484 0
483 -484 0
463 437 -485 0
-463 485 0
-437 485 0
-484 -485 486 0
484 -486 0
485 -486 0
121 486 -487 0
-121 487 0
-486 487 0
273 487 -488 0
-273 488 0
-487 488 0
476 488 -489 0
-476 489 0
-488 489 0
-475 -489 490 0
475 -490 0
489 -490 0
-89 -491 0
89 491 0
436 448 -492 0
-436 492 0
-448 492 0
492 449 -493 0
-492 493 0
-449 493 0
439 435 -494 0
-439 494 0
-435 494 0
494 438 -495 0
-494 495 0
-438 495 0
-493 -495 496 0
493 -496 0
495 -496 0
441 438 -497 0
-441 497 0
-438 497 0
497 443 -498 0
-497 498 0
-443 498 0
-496 -498 499 0
496 -499 0
498 -499 0
479 453 -500 0
-479 500 0
-453 500 0
-499 -500 501 0
499 -501 0
500 -501 0
124 501 -502 0
-124 502 0
-501 502 0
287 502 -503 0
-287 503 0
-502 503 0
491 503 -504 0
-491 504 0
-503 504 0
-490 -504 505 0
490 -505 0
504 -505 0
-90 -506 0
90 506 0
448 453 -507 0
-448 507 0
-453 507 0
507 449 -508 0
-507 508 0
-449 508 0
453 436 -509 0
-453 509 0
-436 509 0
509 448 -510 0
-509 510 0
-448 510 0
-508 -510 511 0
508 -511 0
510 -511 0
441 437 -512 0
-441 512 0
-437 512 0
512 439 -513 0
-512 513 0
-439 513 0
-511 -513 514 0
511 -514 0
513 -514 0
435 449 -515 0
-435 515 0
-449 515 0
515 437 -516 0
-515 516 0
-437 516 0
-514 -516 517 0
514 -517 0
516 -517 0
127 517 -518 0
-127 518 0
-517 518 0
301 518 -519 0
-301 519 0
-518 519 0
506 519 -520 0
-506 520 0
-519 520 0
-505 -520 521 0
505 -521 0
520 -521 0
-91 -522 0
91 522 0
316 439 -523 0
-316 523 0
-439 523 0
522 523 -524 0
-522 524 0
-523 524 0
-521 -524 525 0
521 -525 0
524 -525 0
-92 -526 0
92 526 0
526 443 -527 0
-526 527 0
-443 527 0
-525 -527 528 0
525 -528 0
527 -528 0
-528 -448 529 0
528 -529 0
448 -529 0
440 93 -530 0
-440 530 0
-93 530 0
460 94 -531 0
-460 531 0
-94 531 0
-530 -531 532 0
530 -532 0
531 -532 0
476 95 -533 0
-476 533 0
-95 533 0
-532 -533 534 0
532 -534 0
533 -534 0
491 96 -535 0
-491 535 0
-96 535 0
-534 -535 536 0
534 -536 0
535 -536 0
506 97 -537 0
-506 537 0
-97 537 0
-536 -537 538 0
536 -538 0
537 -538 0
522 98 -539 0
-522 539 0
-98 539 0
-538 -539 540 0
538 -540 0
539 -540 0
526 99 -541 0
-526 541 0
-99 541 0
-540 -541 542 0
540 -542 0
541 -542 0
-93 -543 0
93 543 0
543 86 -544 0
-543 544 0
-86 544 0
-94 -545 0
94 545 0
545 87 -546 0
-545 546 0
-87 546 0
-544 -546 547 0
544 -547 0
546 -547 0
-95 -548 0
95 548 0
548 88 -549 0
-548 549 0
-88 549 0
-547 -549 550 0
547 -550 0
549 -550 0
-96 -551 0
96 551 0
551 89 -552 0
-551 552 0
-89 552 0
-550 -552 553 0
550 -553 0
552 -553 0
-97 -554 0
97 554 0
554 90 -555 0
-554 555 0
-90 555 0
-553 -555 556 0
553 -556 0
555 -556 0
-98 -557 0
98 557 0
557 91 -558 0
-557 558 0
-91 558 0
-556 -558 559 0
556 -559 0
558 -559 0
-99 -560 0
99 560 0
560 92 -561 0
-560 561 0
-92 561 0
-559 -561 562 0
559 -562 0
561 -562 0
-562 -563 0
562 563 0
-542 -563 564 0
542 -564 0
563 -564 0
-564 -565 0
564 565 0
-567 -571 0
567 571 0
571 566 -572 0
-571 572 0
-566 572 0
-568 -573 0
568 573 0
572 573 -574 0
-572 574 0
-573 574 0
566 567 -575 0
-566 575 0
-567 575 0
575 568 -576 0
-575 576 0
-568 576 0
-574 -576 577 0
574 -577 0
576 -577 0
-566 -578 0
566 578 0
-569 -579 0
569 579 0
578 579 -580 0
-578 580 0
-579 580 0
580 568 -581 0
-580 581 0
-568 581 0
-577 -581 582 0
577 -582 0
581 -582 0
-570 -583 0
570 583 0
583 566 -584 0
-583 584 0
-566 584 0
584 579 -585 0
-584 585 0
-579 585 0
-582 -585 586 0
582 -586 0
585 -586 0
140 586 -587 0
-140 587 0
-586 587 0
331 587 -588 0
-331 588 0
-587 588 0
543 588 -589 0
-543 589 0
-588 589 0
567 573 -590 0
-567 590 0
-573 590 0
590 570 -591 0
-590 591 0
-570 591 0
579 567 -592 0
-579 592 0
-567 592 0
592 570 -593 0
-592 593 0
-570 593 0
-591 -593 594 0
591 -594 0
593 -594 0
566 569 -595 0
-566 595 0
-569 595 0
595 583 -596 0
-595 596 0
-583 596 0
-594 -596 597 0
594 -597 0
596 -597 0
567 583 -598 0
-567 598 0
-583 598 0
598 579 -599 0
-598 599 0
-579 599 0
-597 -599 600 0
597 -600 0
599 -600 0
142 600 -601 0
-142 601 0
-600 601 0
333 601 -602 0
-333 602 0
-601 602 0
545 602 -603 0
-545 603 0
-602 603 0
-589 -603 604 0
589 -604 0
603 -604 0
573 579 -605 0
-573 605 0
-579 605 0
605 567 -606 0
-605 606 0
-567 606 0
569 568 -607 0
-569 607 0
-568 607 0
607 567 -608 0
-607 608 0
-567 608 0
-606 -608 609 0
606 -609 0
608 -609 0
569 583 -610 0
-569 610 0
-583 610 0
610 568 -611 0
-610 611 0
-568 611 0
-609 -611 612 0
609 -612 0
611 -612 0
592 568 -613 0
-592 613 0
-568 613 0
-612 -613 614 0
612 -614 0
613 -614 0
145 614 -615 0
-145 615 0
-614 615 0
336 615 -616 0
-336 616 0
-615 616 0
548 616 -617 0
-548 617 0
-616 617 0
-604 -617 618 0
604 -618 0
617 -618 0
567 578 -619 0
-567 619 0
-578 619 0
619 579 -620 0
-619 620 0
-579 620 0
570 566 -621 0
-570 621 0
-566 621 0
621 569 -622 0
-621 622 0
-569 622 0
-620 -622 623 0
620 -623 0
622 -623 0
571 569 -624 0
-571 624 0
-569 624 0
624 573 -625 0
-624 625 0
-573 625 0
-623 -625 626 0
623 -626 0
625 -626 0
607 583 -627 0
-607 627 0
-583 627 0
-626 -627 628 0
626 -628 0
627 -628 0
148 628 -629 0
-148 629 0
-628 629 0
339 629 -630 0
-339 630 0
-629 630 0
551 630 -631 0
-551 631 0
-630 631 0
-618 -631 632 0
618 -632 0
631 -632 0
578 583 -633 0
-578 633 0
-583 633 0
633 579 -634 0
-633 634 0
-579 634 0
583 567 -635 0
-583 635 0
-567 635 0
635 578 -636 0
-635 636 0
-578 636 0
-634 -636 637 0
634 -637 0
636 -637 0
571 568 -638 0
-571 638 0
-568 638 0
638 570 -639 0
-638 639 0
-570 639 0
-637 -639 640 0
637 -640 0
639 -640 0
566 579 -641 0
-566 641 0
-579 641 0
641 568 -642 0
-641 642 0
-568 642 0
-640 -642 643 0
640 -643 0
642 -643 0
151 643 -644 0
-151 644 0
-643 644 0
342 644 -645 0
-342 645 0
-644 645 0
554 645 -646 0
-554 646 0
-645 646 0
-632 -646 647 0
632 -647 0
646 -647 0
345 570 -648 0
-345 648 0
-570 648 0
557 648 -649 0
-557 649 0
-648 649 0
-647 -649 650 0
647 -650 0
649 -650 0
560 573 -651 0
-560 651 0
-573 651 0
-650 -651 652 0
650 -652 0
651 -652 0
-652 -653 0
652 653 0
653 578 -654 0
-653 654 0
-578 654 0
565 654 -655 0
-565 655 0
-654 655 0
-529 -655 656 0
529 -656 0
655 -656 0
-656 -657 0
656 657 0
-100 -663 0
100 663 0
-659 -664 0
659 664 0
664 658 -665 0
-664 665 0
-658 665 0
-660 -666 0
660 666 0
665 666 -667 0
-665 667 0
-666 667 0
658 659 -668 0
-658 668 0
-659 668 0
668 660 -669 0
-668 669 0
-660 669 0
-667 -669 670 0
667 -670 0
669 -670 0
-658 -671 0
658 671 0
-661 -672 0
661 672 0
671 672 -673 0
-671 673 0
-672 673 0
673 660 -674 0
-673 674 0
-660 674 0
-670 -674 675 0
670 -675 0
674 -675 0
-662 -676 0
662 676 0
676 658 -677 0
-676 677 0
-658 677 0
677 672 -678 0
-677 678 0
-672 678 0
-675 -678 679 0
675 -679 0
678 -679 0
116 679 -680 0
-116 680 0
-679 680 0
239 680 -681 0
-239 681 0
-680 681 0
440 681 -682 0
-440 682 0
-681 682 0
663 682 -683 0
-663 683 0
-682 683 0
-101 -684 0
101 684 0
659 666 -685 0
-659 685 0
-666 685 0
685 662 -686 0
-685 686 0
-662 686 0
672 659 -687 0
-672 687 0
-659 687 0
687 662 -688 0
-687 688 0
-662 688 0
-686 -688 689 0
686 -689 0
688 -689 0
658 661 -690 0
-658 690 0
-661 690 0
690 676 -691 0
-690 691 0
-676 691 0
-689 -691 692 0
689 -692 0
691 -692 0
659 676 -693 0
-659 693 0
-676 693 0
693 672 -694 0
-693 694 0
-672 694 0
-692 -694 695 0
692 -695 0
694 -695 0
118 695 -696 0
-118 696 0
-695 696 0
258 696 -697 0
-258 697 0
-696 697 0
460 697 -698 0
-460 698 0
-697 698 0
684 698 -699 0
-684 699 0
-698 699 0
-683 -699 700 0
683 -700 0
699 -700 0
-102 -701 0
102 701 0
666 672 -702 0
-666 702 0
-672 702 0
702 659 -703 0
-702 703 0
-659 703 0
661 660 -704 0
-661 704 0
-660 704 0
704 659 -705 0
-704 705 0
-659 705 0
-703 -705 706 0
703 -706 0
705 -706 0
661 676 -707 0
-661 707 0
-676 707 0
707 660 -708 0
-707 708 0
-660 708 0
-706 -708 709 0
706 -709 0
708 -709 0
687 660 -710 0
-687 710 0
-660 710 0
-709 -710 711 0
709 -711 0
710 -711 0
121 711 -712 0
-121 712 0
-711 712 0
273 712 -713 0
-273 713 0
-712 713 0
476 713 -714 0
-476 714 0
-713 714 0
701 714 -715 0
-701 715 0
-714 715 0
-700 -715 716 0
700 -716 0
715 -716 0
-103 -717 0
103 717 0
659 671 -718 0
-659 718 0
-671 718 0
718 672 -719 0
-718 719 0
-672 719 0
662 658 -720 0
-662 720 0
-658 720 0
720 661 -721 0
-720 721 0
-661 721 0
-719 -721 722 0
719 -722 0
721 -722 0
664 661 -723 0
-664 723 0
-661 723 0
723 666 -724 0
-723 724 0
-666 724 0
-722 -724 725 0
722 -725 0
724 -725 0
704 676 -726 0
-704 726 0
-676 726 0
-725 -726 727 0
725 -727 0
726 -727 0
124 727 -728 0
-124 728 0
-727 728 0
287 728 -729 0
-287 729 0
-728 729 0
491 729 -730 0
-491 730 0
-729 730 0
717 730 -731 0
-717 731 0
-730 731 0
-716 -731 732 0
716 -732 0
731 -732 0
-104 -733 0
104 733 0
671 676 -734 0
-671 734 0
-676 734 0
734 672 -735 0
-734 735 0
-672 735 0
676 659 -736 0
-676 736 0
-659 736 0
736 671 -737 0
-736 737 0
-671 737 0
-735 -737 738 0
735 -738 0
737 -738 0
664 660 -739 0
-664 739 0
-660 739 0
739 662 -740 0
-739 740 0
-662 740 0
-738 -740 741 0
738 -741 0
740 -741 0
658 672 -742 0
-658 742 0
-672 742 0
742 660 -743 0
-742 743 0
-660 743 0
-741 -743 744 0
741 -744 0
743 -744 0
127 744 -745 0
-127 745 0
-744 745 0
301 745 -746 0
-301 746 0
-745 746 0
506 746 -747 0
-506 747 0
-746 747 0
733 747 -748 0
-733 748 0
-747 748 0
-732 -748 749 0
732 -749 0
748 -749 0
-105 -750 0
105 750 0
316 662 -751 0
-316 751 0
-662 751 0
522 751 -752 0
-522 752 0
-751 752 0
750 752 -753 0
-750 753 0
-752 753 0
-749 -753 754 0
749 -754 0
753 -754 0
-106 -755 0
106 755 0
526 666 -756 0
-526 756 0
-666 756 0
755 756 -757 0
-755 757 0
-756 757 0
-754 -757 758 0
754 -758 0
757 -758 0
-107 -759 0
107 759 0
759 671 -760 0
-759 760 0
-671 760 0
-758 -760 761 0
758 -761 0
760 -761 0
-761 -672 762 0
761 -762 0
672 -762 0
663 108 -763 0
-663 763 0
-108 763 0
684 109 -764 0
-684 764 0
-109 764 0
-763 -764 765 0
763 -765 0
764 -765 0
701 110 -766 0
-701 766 0
-110 766 0
-765 -766 767 0
765 -767 0
766 -767 0
717 111 -768 0
-717 768 0
-111 768 0
-767 -768 769 0
767 -769 0
768 -769 0
733 112 -770 0
-733 770 0
-112 770 0
-769 -770 771 0
769 -771 0
770 -771 0
750 113 -772 0
-750 772 0
-113 772 0
-771 -772 773 0
771 -773 0
772 -773 0
755 114 -774 0
-755 774 0
-114 774 0
-773 -774 775 0
773 -775 0
774 -775 0
759 115 -776 0
-759 776 0
-115 776 0
-775 -776 777 0
775 -777 0
776 -777 0
-108 -778 0
108 778 0
778 100 -779 0
-778 779 0
-100 779 0
-109 -780 0
109 780 0
780 101 -781 0
-780 781 0
-101 781 0
-779 -781 782 0
779 -782 0
781 -782 0
-110 -783 0
110 783 0
783 102 -784 0
-783 784 0
-102 784 0
-782 -784 785 0
782 -785 0
784 -785 0
-111 -786 0
111 786 0
786 103 -787 0
-786 787 0
-103 787 0
-785 -787 788 0
785 -788 0
787 -788 0
-112 -789 0
112 789 0
789 104 -790 0
-789 790 0
-104 790 0
-788 -790 791 0
788 -791 0
790 -791 0
-113 -792 0
113 792 0
792 105 -793 0
-792 793 0
-105 793 0
-791 -793 794 0
791 -794 0
793 -794 0
-114 -795 0
114 795 0
795 106 -796 0
-795 796 0
-106 796 0
-794 -796 797 0
794 -797 0
796 -797 0
-115 -798 0
115 798 0
798 107 -799 0
-798 799 0
-107 799 0
-797 -799 800 0
797 -800 0
799 -800 0
-800 -801 0
800 801 0
-777 -801 802 0
777 -802 0
801 -802 0
-802 -803 0
802 803 0
-805 -809 0
805 809 0
809 804 -810 0
-809 810 0
-804 810 0
-806 -811 0
806 811 0
810 811 -812 0
-810 812 0
-811 812 0
804 805 -813 0
-804 813 0
-805 813 0
813 806 -814 0
-813 814 0
-806 814 0
-812 -814 815 0
812 -815 0
814 -815 0
-804 -816 0
804 816 0
-807 -817 0
807 817 0
816 817 -818 0
-816 818 0
-817 818 0
818 806 -819 0
-818 819 0
-806 819 0
-815 -819 820 0
815 -820 0
819 -820 0
-808 -821 0
808 821 0
821 804 -822 0
-821 822 0
-804 822 0
822 817 -823 0
-822 823 0
-817 823 0
-820 -823 824 0
820 -824 0
823 -824 0
140 824 -825 0
-140 825 0
-824 825 0
331 825 -826 0
-331 826 0
-825 826 0
543 826 -827 0
-543 827 0
-826 827 0
778 827 -828 0
-778 828 0
-827 828 0
805 811 -829 0
-805 829 0
-811 829 0
829 808 -830 0
-829 830 0
-808 830 0
817 805 -831 0
-817 831 0
-805 831 0
831 808 -832 0
-831 832 0
-808 832 0
-830 -832 833 0
830 -833 0
832 -833 0
804 807 -834 0
-804 834 0
-807 834 0
834 821 -835 0
-834 835 0
-821 835 0
-833 -835 836 0
833 -836 0
835 -836 0
805 821 -837 0
-805 837 0
-821 837 0
837 817 -838 0
-837 838 0
-817 838 0
-836 -838 839 0
836 -839 0
838 -839 0
142 839 -840 0
-142 840 0
-839 840 0
333 840 -841 0
-333 841 0
-840 841 0
545 841 -842 0
-545 842 0
-841 842 0
780 842 -843 0
-780 843 0
-842 843 0
-828 -843 844 0
828 -844 0
843 -844 0
811 817 -845 0
-811 845 0
-817 845 0
845 805 -846 0
-845 846 0
-805 846 0
807 806 -847 0
-807 847 0
-806 847 0
847 805 -848 0
-847 848 0
-805 848 0
-846 -848 849 0
846 -849 0
848 -849 0
807 821 -850 0
-807 850 0
-821 850 0
850 806 -851 0
-850 851 0
-806 851 0
-849 -851 852 0
849 -852 0
851 -852 0
831 806 -853 0
-831 853 0
-806 853 0
-852 -853 854 0
852 -854 0
853 -854 0
145 854 -855 0
-145 855 0
-854 855 0
336 855 -856 0
-336 856 0
-855 856 0
548 856 -857 0
-548 857 0
-856 857 0
783 857 -858 0
-783 858 0
-857 858 0
-844 -858 859 0
844 -859 0
858 -859 0
805 816 -860 0
-805 860 0
-816 860 0
860 817 -861 0
-860 861 0
-817 861 0
808 804 -862 0
-808 862 0
-804 862 0
862 807 -863 0
-862 863 0
-807 863 0
-861 -863 864 0
861 -864 0
863 -864 0
809 807 -865 0
-809 865 0
-807 865 0
865 811 -866 0
-865 866 0
-811 866 0
-864 -866 867 0
864 -867 0
866 -867 0
847 821 -868 0
-847 868 0
-821 868 0
-867 -868 869 0
867 -869 0
868 -869 0
148 869 -870 0
-148 870 0
-869 870 0
339 870 -871 0
-339 871 0
-870 871 0
551 871 -872 0
-551 872 0
-871 872 0
786 872 -873 0
-786 873 0
-872 873 0
-859 -873 874 0
859 -874 0
873 -874 0
816 821 -875 0
-816 875 0
-821 875 0
875 817 -876 0
-875 876 0
-817 876 0
821 805 -877 0
-821 877 0
-805 877 0
877 816 -878 0
-877 878 0
-816 878 0
-876 -878 879 0
876 -879 0
878 -879 0
809 806 -880 0
-809 880 0
-806 880 0
880 808 -881 0
-880 881 0
-808 881 0
-879 -881 882 0
879 -882 0
881 -882 0
804 817 -883 0
-804 883 0
-817 883 0
883 806 -884 0
-883 884 0
-806 884 0
-882 -884 885 0
882 -885 0
884 -885 0
151 885 -886 0
-151 886 0
-885 886 0
342 886 -887 0
-342 887 0
-886 887 0
554 887 -888 0
-554 888 0
-887 888 0
789 888 -889 0
-789 889 0
-888 889 0
-874 -889 890 0
874 -890 0
889 -890 0
345 808 -891 0
-345 891 0
-808 891 0
557 891 -892 0
-557 892 0
-891 892 0
792 892 -893 0
-792 893 0
-892 893 0
-890 -893 894 0
890 -894 0
893 -894 0
560 811 -895 0
-560 895 0
-811 895 0
795 895 -896 0
-795 896 0
-895 896 0
-894 -896 897 0
894 -897 0
896 -897 0
798 816 -898 0
-798 898 0
-816 898 0
-897 -898 899 0
897 -899 0
898 -899 0
-899 -900 0
899 900 0
900 817 -901 0
-900 901 0
-817 901 0
803 901 -902 0
-803 902 0
-901 902 0
-762 -902 903 0
762 -903 0
902 -903 0
-903 -904 0
903 904 0
-906 -910 0
906 910 0
910 905 -911 0
-910 911 0
-905 911 0
-907 -912 0
907 912 0
911 912 -913 0
-911 913 0
-912 913 0
905 906 -914 0
-905 914 0
-906 914 0
914 907 -915 0
-914 915 0
-907 915 0
-913 -915 916 0
913 -916 0
915 -916 0
-905 -917 0
905 917 0
-908 -918 0
908 918 0
917 918 -919 0
-917 919 0
-918 919 0
919 907 -920 0
-919 920 0
-907 920 0
-916 -920 921 0
916 -921 0
920 -921 0
-909 -922 0
909 922 0
922 905 -923 0
-922 923 0
-905 923 0
923 918 -924 0
-923 924 0
-918 924 0
-921 -924 925 0
921 -925 0
924 -925 0
116 925 -926 0
-116 926 0
-925 926 0
239 926 -927 0
-239 927 0
-926 927 0
440 927 -928 0
-440 928 0
-927 928 0
663 928 -929 0
-663 929 0
-928 929 0
906 912 -930 0
-906 930 0
-912 930 0
930 909 -931 0
-930 931 0
-909 931 0
918 906 -932 0
-918 932 0
-906 932 0
932 909 -933 0
-932 933 0
-909 933 0
-931 -933 934 0
931 -934 0
933 -934 0
905 908 -935 0
-905 935 0
-908 935 0
935 922 -936 0
-935 936 0
-922 936 0
-934 -936 937 0
934 -937 0
936 -937 0
906 922 -938 0
-906 938 0
-922 938 0
938 918 -939 0
-938 939 0
-918 939 0
-937 -939 940 0
937 -940 0
939 -940 0
118 940 -941 0
-118 941 0
-940 941 0
258 941 -942 0
-258 942 0
-941 942 0
460 942 -943 0
-460 943 0
-942 943 0
684 943 -944 0
-684 944 0
-943 944 0
-929 -944 945 0
929 -945 0
944 -945 0
912 918 -946 0
-912 946 0
-918 946 0
946 906 -947 0
-946 947 0
-906 947 0
908 907 -948 0
-908 948 0
-907 948 0
948 906 -949 0
-948 949 0
-906 949 0
-947 -949 950 0
947 -950 0
949 -950 0
908 922 -951 0
-908 951 0
-922 951 0
951 907 -952 0
-951 952 0
-907 952 0
-950 -952 953 0
950 -953 0
952 -953 0
932 907 -954 0
-932 954 0
-907 954 0
-953 -954 955 0
953 -955 0
954 -955 0
121 955 -956 0
-121 956 0
-955 956 0
273 956 -957 0
-273 957 0
-956 957 0
476 957 -958 0
-476 958 0
-957 958 0
701 958 -959 0
-701 959 0
-958 959 0
-945 -959 960 0
945 -960 0
959 -960 0
906 917 -961 0
-906 961 0
-917 961 0
961 918 -962 0
-961 962 0
-918 962 0
909 905 -963 0
-909 963 0
-905 963 0
963 908 -964 0
-963 964 0
-908 964 0
-962 -964 965 0
962 -965 0
964 -965 0
910 908 -966 0
-910 966 0
-908 966 0
966 912 -967 0
-966 967 0
-912 967 0
-965 -967 968 0
965 -968 0
967 -968 0
948 922 -969 0
-948 969 0
-922 969 0
-968 -969 970 0
968 -970 0
969 -970 0
124 970 -971 0
-124 971 0
-970 971 0
287 971 -972 0
-287 972 0
-971 972 0
491 972 -973 0
-491 973 0
-972 973 0
717 973 -974 0
-717 974 0
-973 974 0
-960 -974 975 0
960 -975 0
974 -975 0
917 922 -976 0
-917 976 0
-922 976 0
976 918 -977 0
-976 977 0
-918 977 0
922 906 -978 0
-922 978 0
-906 978 0
978 917 -979 0
-978 979 0
-917 979 0
-977 -979 980 0
977 -980 0
979 -980 0
910 907 -981 0
-910 981 0
-907 981 0
981 909 -982 0
-981 982 0
-909 982 0
-980 -982 983 0
980 -983 0
982 -983 0
905 918 -984 0
-905 984 0
-918 984 0
984 907 -985 0
-984 985 0
-907 985 0
-983 -985 986 0
983 -986 0
985 -986 0
127 986 -987 0
-127 987 0
-986 987 0
301 987 -988 0
-301 988 0
-987 988 0
506 988 -989 0
-506 989 0
-988 989 0
733 989 -990 0
-733 990 0
-989 990 0
-975 -990 991 0
975 -991 0
990 -991 0
316 909 -992 0
-316 992 0
-909 992 0
522 992 -993 0
-522 993 0
-992 993 0
750 993 -994 0
-750 994 0
-993 994 0
-991 -994 995 0
991 -995 0
994 -995 0
526 912 -996 0
-526 996 0
-912 996 0
755 996 -997 0
-755 997 0
-996 997 0
-995 -997 998 0
995 -998 0
997 -998 0
759 917 -999 0
-759 999 0
-917 999 0
-998 -999 1000 0
998 -1000 0
999 -1000 0
-1000 -1001 0
1000 1001 0
1001 918 -1002 0
-1001 1002 0
-918 1002 0
-904 -1002 1003 0
904 -1003 0
1002 -1003 0
-1003 -1004 0
1003 1004 0
-657 -1004 1005 0
657 -1005 0
1004 -1005 0
-1005 -1006 0
1005 1006 0
-434 -1006 1007 0
434 -1007 0
1006 -1007 0
-1007 -1008 0
1007 1008 0
-233 -1008 1009 0
233 -1009 0
1008 -1009 0
-1009 -1010 0
1009 1010 0
1010 0
